InboundTrucks  = 30;
OutboundTrucks = 30;
InboundDoors   = 4;
OutboundDoors  = 4;
ReleaseTime    = [110,108,7,11,10,46,106,21,94,103,85,109,39,32,77,27,77,4,74,87,20,55,81,50,102,92,110,65,47,69];
UnloadTime     = [26,29,23,17,14,14,18,25,14,30,28,29,12,32,23,26,11,17,17,35,11,23,10,28,27,31,14,34,28,15];
LoadTime       = [14,19,13,7,19,14,7,8,18,7,7,17,15,9,18,7,20,7,10,6,8,7,18,7,20,6,20,13,5,6];
TransferTime   = [| 5,0,0,1,0,0,3,0,0,3,0,0,1,0,0,0,0,0,4,0,0,1,0,0,3,0,0,3,0,7 | 0,2,0,0,0,0,0,1,0,0,2,0,0,0,0,0,0,0,0,3,0,0,5,0,0,0,0,0,1,10 | 0,0,4,0,0,3,0,0,4,0,0,0,0,0,3,0,0,4,0,8,3,0,0,1,0,0,5,0,0,3 | 2,0,0,1,0,0,0,5,0,4,0,0,4,0,0,4,0,0,2,0,0,5,0,0,1,0,0,3,0,0 | 0,0,0,0,4,0,0,3,0,0,1,0,0,0,0,0,4,0,0,4,0,0,0,0,0,2,0,0,0,0 | 0,0,0,0,0,0,0,0,3,0,0,3,0,0,4,0,0,4,0,0,0,0,0,0,0,0,0,0,0,1 | 4,0,0,1,0,0,0,0,6,1,0,0,3,0,0,2,0,0,4,0,0,4,0,0,5,0,0,5,0,0 | 0,2,0,0,1,0,0,3,0,0,2,0,0,0,0,10,2,0,0,1,0,0,5,0,5,1,0,0,0,0 | 0,0,2,0,0,5,0,0,4,0,0,3,0,0,3,0,0,5,0,0,3,0,0,5,9,0,1,0,0,1 | 5,0,0,4,0,0,0,0,0,0,0,0,0,0,0,4,0,0,5,0,0,1,0,0,3,0,0,3,0,0 | 10,0,0,0,0,0,0,3,0,0,0,0,0,2,0,0,3,0,0,3,0,0,1,12,0,1,0,0,2,0 | 0,0,2,0,0,0,0,0,4,0,0,3,0,0,4,0,0,5,0,0,3,0,0,5,0,0,4,0,0,5 | 0,0,0,0,0,11,2,0,0,5,0,0,0,0,0,0,0,0,2,0,11,2,0,0,4,0,0,0,0,0 | 0,0,0,0,0,0,0,0,0,5,2,0,0,2,0,0,5,0,12,4,0,0,3,7,0,5,0,0,1,7 | 0,0,2,0,0,1,0,0,4,0,0,5,0,0,0,11,0,0,0,0,2,0,0,1,0,6,0,0,0,4 | 3,7,0,2,8,0,4,0,0,3,0,0,3,0,0,3,0,0,0,0,0,0,0,0,4,0,0,1,0,0 | 0,2,0,0,1,0,0,0,0,0,0,0,0,4,0,0,3,5,0,0,0,0,2,0,0,3,0,0,1,0 | 0,0,1,0,10,1,0,0,5,0,0,3,0,0,3,0,0,5,0,0,4,0,0,4,0,0,0,0,9,2 | 3,0,0,4,6,0,3,0,5,2,0,0,4,0,0,2,0,0,2,0,0,0,0,0,0,0,0,3,0,0 | 0,4,0,9,0,0,0,3,0,0,5,0,0,3,12,0,1,0,0,0,0,0,5,0,0,0,0,0,3,0 | 7,0,2,0,0,1,0,0,2,0,0,0,0,0,4,0,0,5,0,0,3,0,0,4,9,0,0,12,0,2 | 2,0,0,0,0,0,4,0,10,2,0,0,4,0,0,0,0,0,2,0,0,5,0,0,0,0,0,5,0,8 | 0,4,0,0,3,0,0,3,0,0,0,0,0,1,0,0,1,0,0,3,0,0,0,0,0,4,0,7,2,0 | 0,0,2,0,0,2,0,0,0,0,0,0,0,0,4,0,0,2,0,12,3,0,9,4,0,0,4,5,0,5 | 5,0,0,4,0,0,3,0,0,5,8,0,0,0,12,2,0,0,3,0,0,2,0,0,4,0,0,4,0,5 | 0,1,0,0,5,12,0,3,0,0,2,0,0,4,0,0,3,0,0,2,0,0,3,0,0,4,0,11,4,0 | 0,0,3,0,0,0,0,0,0,0,0,3,0,0,5,0,0,2,0,0,0,0,0,0,0,0,3,0,0,1 | 3,6,0,4,0,0,3,0,0,3,0,0,4,0,0,0,0,0,4,0,0,0,6,0,0,0,0,3,0,0 | 0,5,0,0,1,0,0,4,0,0,0,0,0,0,0,6,5,0,0,3,9,0,1,0,0,3,0,0,3,0 | 10,0,5,0,0,2,0,0,2,0,0,0,0,0,2,0,0,3,0,5,5,0,0,2,0,0,4,0,0,5 |];
